; chc-comp19-benchmarks/./lia-lin-arr/chc-lia-lin-arr-0171_000.smt2
(set-logic HORN)

(declare-fun |ULTIMATE.start_L2-1| ( Int (Array Int Int) (Array Int Int) (Array Int (Array Int Int)) (Array Int (Array Int Int)) Int Int (Array Int Int) (Array Int Int) Int Int Int Int Int Int Int Int Int Int Int Int Int Int Int Int Int Int Int Int Int Bool ) Bool)
(declare-fun |ULTIMATE.start_L13-2| ( Int (Array Int Int) (Array Int Int) (Array Int (Array Int Int)) (Array Int (Array Int Int)) Int Int (Array Int Int) (Array Int Int) Int Int Int Int Int Int Int Int Int Int Int Int Int Int Int Int Int Int Int Int Int Bool ) Bool)
(declare-fun |ULTIMATE.start_ULTIMATE.startFINAL| ( Int (Array Int Int) (Array Int Int) (Array Int (Array Int Int)) (Array Int (Array Int Int)) Int Int (Array Int Int) (Array Int Int) Int Int Int Int Int Int Int Int Int Int Int Int Int Int Int Int Int Int Int Int Int Bool ) Bool)
(declare-fun |ULTIMATE.start_L20| ( Int (Array Int Int) (Array Int Int) (Array Int (Array Int Int)) (Array Int (Array Int Int)) Int Int (Array Int Int) (Array Int Int) Int Int Int Int Int Int Int Int Int Int Int Int Int Int Int Int Int Int Int Int Int Bool ) Bool)
(declare-fun |ULTIMATE.start_L13-4| ( Int (Array Int Int) (Array Int Int) (Array Int (Array Int Int)) (Array Int (Array Int Int)) Int Int (Array Int Int) (Array Int Int) Int Int Int Int Int Int Int Int Int Int Int Int Int Int Int Int Int Int Int Int Int Bool ) Bool)
(declare-fun |ULTIMATE.start_L-1| ( Int (Array Int Int) (Array Int Int) (Array Int (Array Int Int)) (Array Int (Array Int Int)) Int Int (Array Int Int) (Array Int Int) Int Int Int Int Int Int Int Int Int Int Int Int Int Int Int Int Int Int Int Int Int Bool ) Bool)
(declare-fun |ULTIMATE.start_L8-4| ( Int (Array Int Int) (Array Int Int) (Array Int (Array Int Int)) (Array Int (Array Int Int)) Int Int (Array Int Int) (Array Int Int) Int Int Int Int Int Int Int Int Int Int Int Int Int Int Int Int Int Int Int Int Int Bool ) Bool)
(declare-fun |ULTIMATE.start_L8-3| ( Int (Array Int Int) (Array Int Int) (Array Int (Array Int Int)) (Array Int (Array Int Int)) Int Int (Array Int Int) (Array Int Int) Int Int Int Int Int Int Int Int Int Int Int Int Int Int Int Int Int Int Int Int Int Bool ) Bool)
(declare-fun |ULTIMATE.start_L13-3| ( Int (Array Int Int) (Array Int Int) (Array Int (Array Int Int)) (Array Int (Array Int Int)) Int Int (Array Int Int) (Array Int Int) Int Int Int Int Int Int Int Int Int Int Int Int Int Int Int Int Int Int Int Int Int Bool ) Bool)
(declare-fun |ULTIMATE.start_L17-4| ( Int (Array Int Int) (Array Int Int) (Array Int (Array Int Int)) (Array Int (Array Int Int)) Int Int (Array Int Int) (Array Int Int) Int Int Int Int Int Int Int Int Int Int Int Int Int Int Int Int Int Int Int Int Int Bool ) Bool)
(declare-fun |ULTIMATE.start_L2-3| ( Int (Array Int Int) (Array Int Int) (Array Int (Array Int Int)) (Array Int (Array Int Int)) Int Int (Array Int Int) (Array Int Int) Int Int Int Int Int Int Int Int Int Int Int Int Int Int Int Int Int Int Int Int Int Bool ) Bool)
(declare-fun |ULTIMATE.start_ULTIMATE.startEXIT| ( Int (Array Int Int) (Array Int Int) (Array Int (Array Int Int)) (Array Int (Array Int Int)) Int Int (Array Int Int) (Array Int Int) Int Int Int Int Int Int Int Int Int Int Int Int Int Int Int Int Int Int Int Int Int Bool ) Bool)
(declare-fun |ULTIMATE.start_L17-2| ( Int (Array Int Int) (Array Int Int) (Array Int (Array Int Int)) (Array Int (Array Int Int)) Int Int (Array Int Int) (Array Int Int) Int Int Int Int Int Int Int Int Int Int Int Int Int Int Int Int Int Int Int Int Int Bool ) Bool)
(declare-fun |ULTIMATE.start_ULTIMATE.startENTRY| ( Int (Array Int Int) (Array Int Int) (Array Int (Array Int Int)) (Array Int (Array Int Int)) Int Int (Array Int Int) (Array Int Int) Int Int Int Int Int Int Int Int Int Int Int Int Int Int Int Int Int Int Int Int Int Bool ) Bool)
(declare-fun |ULTIMATE.start_L17-3| ( Int (Array Int Int) (Array Int Int) (Array Int (Array Int Int)) (Array Int (Array Int Int)) Int Int (Array Int Int) (Array Int Int) Int Int Int Int Int Int Int Int Int Int Int Int Int Int Int Int Int Int Int Int Int Bool ) Bool)
(declare-fun |ULTIMATE.start_L8-2| ( Int (Array Int Int) (Array Int Int) (Array Int (Array Int Int)) (Array Int (Array Int Int)) Int Int (Array Int Int) (Array Int Int) Int Int Int Int Int Int Int Int Int Int Int Int Int Int Int Int Int Int Int Int Int Bool ) Bool)
(declare-fun |ULTIMATE.start_L2| ( Int (Array Int Int) (Array Int Int) (Array Int (Array Int Int)) (Array Int (Array Int Int)) Int Int (Array Int Int) (Array Int Int) Int Int Int Int Int Int Int Int Int Int Int Int Int Int Int Int Int Int Int Int Int Bool ) Bool)

(assert
  (forall ( (A Int) (B (Array Int Int)) (C (Array Int Int)) (D (Array Int (Array Int Int))) (E (Array Int (Array Int Int))) (F Int) (G Int) (H (Array Int Int)) (I (Array Int Int)) (J Int) (K Int) (L Int) (M Int) (N Int) (O Int) (P Int) (Q Int) (R Int) (S Int) (T Int) (U Int) (V Int) (W Int) (X Int) (Y Int) (Z Int) (A1 Int) (B1 Int) (C1 Int) (D1 Int) (E1 Bool) (F1 (Array Int Int)) (G1 Int) (H1 Int) ) 
    (=>
      (and
        (ULTIMATE.start_ULTIMATE.startENTRY
  A
  F1
  C
  D
  E
  G1
  G
  H
  I
  H1
  K
  L
  M
  N
  O
  P
  Q
  R
  S
  T
  U
  V
  W
  X
  Y
  Z
  A1
  B1
  C1
  D1
  E1)
        (or E1 (and (= J 0) (= F 0) (= B (store F1 0 0))))
      )
      (ULTIMATE.start_L-1
  A
  B
  C
  D
  E
  F
  G
  H
  I
  J
  K
  L
  M
  N
  O
  P
  Q
  R
  S
  T
  U
  V
  W
  X
  Y
  Z
  A1
  B1
  C1
  D1
  E1)
    )
  )
)
(assert
  (forall ( (A Int) (B (Array Int Int)) (C (Array Int Int)) (D (Array Int (Array Int Int))) (E (Array Int (Array Int Int))) (F Int) (G Int) (H (Array Int Int)) (I (Array Int Int)) (J Int) (K Int) (L Int) (M Int) (N Int) (O Int) (P Int) (Q Int) (R Int) (S Int) (T Int) (U Int) (V Int) (W Int) (X Int) (Y Int) (Z Int) (A1 Int) (B1 Int) (C1 Int) (D1 Int) (E1 Bool) (F1 (Array Int Int)) (G1 (Array Int Int)) (H1 Int) (I1 Int) (J1 Int) (K1 Int) (L1 Int) (M1 Int) (N1 Int) (O1 Int) (P1 Int) (Q1 Int) (R1 Int) (S1 Int) (T1 Int) (U1 Int) (V1 Int) (W1 Int) ) 
    (=>
      (and
        (ULTIMATE.start_L-1
  A
  F1
  C
  D
  E
  F
  G
  G1
  I
  J
  K
  H1
  I1
  J1
  O
  K1
  L1
  M1
  N1
  T
  O1
  P1
  Q1
  R1
  S1
  T1
  U1
  B1
  V1
  W1
  E1)
        (let ((a!1 (and (not (<= A Z))
                (not (<= A U))
                (= M 0)
                (= N 0)
                (= X 0)
                (not (= 0 Z))
                (not (= 0 U))
                (= 0 (select F1 U))
                (= (select (store F1 U 1) Z) 0)
                (= H (store (store G1 U 400000) Z 400000))
                (= B (store (store F1 U 1) Z 1)))))
  (or E1 a!1))
      )
      (ULTIMATE.start_L8-3
  A
  B
  C
  D
  E
  F
  G
  H
  I
  J
  K
  L
  M
  N
  O
  P
  Q
  R
  S
  T
  U
  V
  W
  X
  Y
  Z
  A1
  B1
  C1
  D1
  E1)
    )
  )
)
(assert
  (forall ( (A Int) (B (Array Int Int)) (C (Array Int Int)) (D (Array Int (Array Int Int))) (E (Array Int (Array Int Int))) (F Int) (G Int) (H (Array Int Int)) (I (Array Int Int)) (J Int) (K Int) (L Int) (M Int) (N Int) (O Int) (P Int) (Q Int) (R Int) (S Int) (T Int) (U Int) (V Int) (W Int) (X Int) (Y Int) (Z Int) (A1 Int) (B1 Int) (C1 Int) (D1 Int) (E1 Bool) ) 
    (=>
      (and
        (ULTIMATE.start_L8-3
  A
  B
  C
  D
  E
  F
  G
  H
  I
  J
  K
  L
  M
  N
  O
  P
  Q
  R
  S
  T
  U
  V
  W
  X
  Y
  Z
  A1
  B1
  C1
  D1
  E1)
        (= E1 true)
      )
      (ULTIMATE.start_L8-4
  A
  B
  C
  D
  E
  F
  G
  H
  I
  J
  K
  L
  M
  N
  O
  P
  Q
  R
  S
  T
  U
  V
  W
  X
  Y
  Z
  A1
  B1
  C1
  D1
  E1)
    )
  )
)
(assert
  (forall ( (A Int) (B (Array Int Int)) (C (Array Int Int)) (D (Array Int (Array Int Int))) (E (Array Int (Array Int Int))) (F Int) (G Int) (H (Array Int Int)) (I (Array Int Int)) (J Int) (K Int) (L Int) (M Int) (N Int) (O Int) (P Int) (Q Int) (R Int) (S Int) (T Int) (U Int) (V Int) (W Int) (X Int) (Y Int) (Z Int) (A1 Int) (B1 Int) (C1 Int) (D1 Int) (E1 Bool) ) 
    (=>
      (and
        (ULTIMATE.start_L8-3
  A
  B
  C
  D
  E
  F
  G
  H
  I
  J
  K
  L
  M
  N
  O
  P
  Q
  R
  S
  T
  U
  V
  W
  X
  Y
  Z
  A1
  B1
  C1
  D1
  E1)
        (or E1 (<= 100000 N))
      )
      (ULTIMATE.start_L8-4
  A
  B
  C
  D
  E
  F
  G
  H
  I
  J
  K
  L
  M
  N
  O
  P
  Q
  R
  S
  T
  U
  V
  W
  X
  Y
  Z
  A1
  B1
  C1
  D1
  E1)
    )
  )
)
(assert
  (forall ( (A Int) (B (Array Int Int)) (C (Array Int Int)) (D (Array Int (Array Int Int))) (E (Array Int (Array Int Int))) (F Int) (G Int) (H (Array Int Int)) (I (Array Int Int)) (J Int) (K Int) (L Int) (M Int) (N Int) (O Int) (P Int) (Q Int) (R Int) (S Int) (T Int) (U Int) (V Int) (W Int) (X Int) (Y Int) (Z Int) (A1 Int) (B1 Int) (C1 Int) (D1 Int) (E1 Bool) (F1 (Array Int (Array Int Int))) (G1 Int) (H1 Int) ) 
    (=>
      (and
        (ULTIMATE.start_L8-3
  A
  B
  C
  F1
  E
  F
  G
  H
  I
  J
  K
  G1
  M
  N
  O
  H1
  Q
  R
  S
  T
  U
  V
  W
  X
  Y
  Z
  A1
  B1
  C1
  D1
  E1)
        (let ((a!1 (store F1 U (store (select F1 U) (+ (* 4 N) X) G1))))
(let ((a!2 (store a!1 Z (store (select a!1 Z) (+ M (* 4 N)) H1))))
  (or E1
      (and (<= G1 2147483647)
           (<= H1 2147483647)
           (not (<= 100000 N))
           (<= (- 2147483648) G1)
           (<= (- 2147483648) H1)
           (= D a!2)))))
      )
      (ULTIMATE.start_L8-2
  A
  B
  C
  D
  E
  F
  G
  H
  I
  J
  K
  L
  M
  N
  O
  P
  Q
  R
  S
  T
  U
  V
  W
  X
  Y
  Z
  A1
  B1
  C1
  D1
  E1)
    )
  )
)
(assert
  (forall ( (A Int) (B (Array Int Int)) (C (Array Int Int)) (D (Array Int (Array Int Int))) (E (Array Int (Array Int Int))) (F Int) (G Int) (H (Array Int Int)) (I (Array Int Int)) (J Int) (K Int) (L Int) (M Int) (N Int) (O Int) (P Int) (Q Int) (R Int) (S Int) (T Int) (U Int) (V Int) (W Int) (X Int) (Y Int) (Z Int) (A1 Int) (B1 Int) (C1 Int) (D1 Int) (E1 Bool) (F1 Int) ) 
    (=>
      (and
        (ULTIMATE.start_L8-4
  A
  B
  C
  D
  E
  F
  G
  H
  I
  J
  K
  L
  M
  N
  O
  P
  Q
  F1
  S
  T
  U
  V
  W
  X
  Y
  Z
  A1
  B1
  C1
  D1
  E1)
        (or E1 (= R 0))
      )
      (ULTIMATE.start_L13-3
  A
  B
  C
  D
  E
  F
  G
  H
  I
  J
  K
  L
  M
  N
  O
  P
  Q
  R
  S
  T
  U
  V
  W
  X
  Y
  Z
  A1
  B1
  C1
  D1
  E1)
    )
  )
)
(assert
  (forall ( (A Int) (B (Array Int Int)) (C (Array Int Int)) (D (Array Int (Array Int Int))) (E (Array Int (Array Int Int))) (F Int) (G Int) (H (Array Int Int)) (I (Array Int Int)) (J Int) (K Int) (L Int) (M Int) (N Int) (O Int) (P Int) (Q Int) (R Int) (S Int) (T Int) (U Int) (V Int) (W Int) (X Int) (Y Int) (Z Int) (A1 Int) (B1 Int) (C1 Int) (D1 Int) (E1 Bool) (F1 Int) (G1 Int) ) 
    (=>
      (and
        (ULTIMATE.start_L8-2
  A
  B
  C
  D
  E
  F
  G
  H
  I
  J
  K
  L
  M
  F1
  O
  P
  Q
  R
  G1
  T
  U
  V
  W
  X
  Y
  Z
  A1
  B1
  C1
  D1
  E1)
        (or E1 (= F1 (+ (- 1) N)))
      )
      (ULTIMATE.start_L8-3
  A
  B
  C
  D
  E
  F
  G
  H
  I
  J
  K
  L
  M
  N
  O
  P
  Q
  R
  S
  T
  U
  V
  W
  X
  Y
  Z
  A1
  B1
  C1
  D1
  E1)
    )
  )
)
(assert
  (forall ( (A Int) (B (Array Int Int)) (C (Array Int Int)) (D (Array Int (Array Int Int))) (E (Array Int (Array Int Int))) (F Int) (G Int) (H (Array Int Int)) (I (Array Int Int)) (J Int) (K Int) (L Int) (M Int) (N Int) (O Int) (P Int) (Q Int) (R Int) (S Int) (T Int) (U Int) (V Int) (W Int) (X Int) (Y Int) (Z Int) (A1 Int) (B1 Int) (C1 Int) (D1 Int) (E1 Bool) ) 
    (=>
      (and
        (ULTIMATE.start_L13-3
  A
  B
  C
  D
  E
  F
  G
  H
  I
  J
  K
  L
  M
  N
  O
  P
  Q
  R
  S
  T
  U
  V
  W
  X
  Y
  Z
  A1
  B1
  C1
  D1
  E1)
        (= E1 true)
      )
      (ULTIMATE.start_L13-4
  A
  B
  C
  D
  E
  F
  G
  H
  I
  J
  K
  L
  M
  N
  O
  P
  Q
  R
  S
  T
  U
  V
  W
  X
  Y
  Z
  A1
  B1
  C1
  D1
  E1)
    )
  )
)
(assert
  (forall ( (A Int) (B (Array Int Int)) (C (Array Int Int)) (D (Array Int (Array Int Int))) (E (Array Int (Array Int Int))) (F Int) (G Int) (H (Array Int Int)) (I (Array Int Int)) (J Int) (K Int) (L Int) (M Int) (N Int) (O Int) (P Int) (Q Int) (R Int) (S Int) (T Int) (U Int) (V Int) (W Int) (X Int) (Y Int) (Z Int) (A1 Int) (B1 Int) (C1 Int) (D1 Int) (E1 Bool) ) 
    (=>
      (and
        (ULTIMATE.start_L13-3
  A
  B
  C
  D
  E
  F
  G
  H
  I
  J
  K
  L
  M
  N
  O
  P
  Q
  R
  S
  T
  U
  V
  W
  X
  Y
  Z
  A1
  B1
  C1
  D1
  E1)
        (or E1 (<= 100000 R))
      )
      (ULTIMATE.start_L13-4
  A
  B
  C
  D
  E
  F
  G
  H
  I
  J
  K
  L
  M
  N
  O
  P
  Q
  R
  S
  T
  U
  V
  W
  X
  Y
  Z
  A1
  B1
  C1
  D1
  E1)
    )
  )
)
(assert
  (forall ( (A Int) (B (Array Int Int)) (C (Array Int Int)) (D (Array Int (Array Int Int))) (E (Array Int (Array Int Int))) (F Int) (G Int) (H (Array Int Int)) (I (Array Int Int)) (J Int) (K Int) (L Int) (M Int) (N Int) (O Int) (P Int) (Q Int) (R Int) (S Int) (T Int) (U Int) (V Int) (W Int) (X Int) (Y Int) (Z Int) (A1 Int) (B1 Int) (C1 Int) (D1 Int) (E1 Bool) (F1 (Array Int (Array Int Int))) (G1 Int) ) 
    (=>
      (and
        (ULTIMATE.start_L13-3
  A
  B
  C
  F1
  E
  F
  G
  H
  I
  J
  K
  L
  M
  N
  O
  P
  Q
  R
  S
  T
  U
  V
  W
  X
  Y
  Z
  A1
  B1
  C1
  G1
  E1)
        (or E1 (and (not (<= 100000 R)) (= D F1)))
      )
      (ULTIMATE.start_L13-2
  A
  B
  C
  D
  E
  F
  G
  H
  I
  J
  K
  L
  M
  N
  O
  P
  Q
  R
  S
  T
  U
  V
  W
  X
  Y
  Z
  A1
  B1
  C1
  D1
  E1)
    )
  )
)
(assert
  (forall ( (A Int) (B (Array Int Int)) (C (Array Int Int)) (D (Array Int (Array Int Int))) (E (Array Int (Array Int Int))) (F Int) (G Int) (H (Array Int Int)) (I (Array Int Int)) (J Int) (K Int) (L Int) (M Int) (N Int) (O Int) (P Int) (Q Int) (R Int) (S Int) (T Int) (U Int) (V Int) (W Int) (X Int) (Y Int) (Z Int) (A1 Int) (B1 Int) (C1 Int) (D1 Int) (E1 Bool) (F1 Int) ) 
    (=>
      (and
        (ULTIMATE.start_L13-4
  A
  B
  C
  D
  E
  F
  G
  H
  I
  J
  K
  L
  M
  N
  O
  P
  Q
  R
  S
  T
  U
  F1
  W
  X
  Y
  Z
  A1
  B1
  C1
  D1
  E1)
        (or E1 (= V 0))
      )
      (ULTIMATE.start_L17-3
  A
  B
  C
  D
  E
  F
  G
  H
  I
  J
  K
  L
  M
  N
  O
  P
  Q
  R
  S
  T
  U
  V
  W
  X
  Y
  Z
  A1
  B1
  C1
  D1
  E1)
    )
  )
)
(assert
  (forall ( (A Int) (B (Array Int Int)) (C (Array Int Int)) (D (Array Int (Array Int Int))) (E (Array Int (Array Int Int))) (F Int) (G Int) (H (Array Int Int)) (I (Array Int Int)) (J Int) (K Int) (L Int) (M Int) (N Int) (O Int) (P Int) (Q Int) (R Int) (S Int) (T Int) (U Int) (V Int) (W Int) (X Int) (Y Int) (Z Int) (A1 Int) (B1 Int) (C1 Int) (D1 Int) (E1 Bool) (F1 Int) (G1 Int) ) 
    (=>
      (and
        (ULTIMATE.start_L13-2
  A
  B
  C
  D
  E
  F
  G
  H
  I
  J
  K
  L
  M
  N
  O
  P
  F1
  G1
  S
  T
  U
  V
  W
  X
  Y
  Z
  A1
  B1
  C1
  D1
  E1)
        (or E1 (= G1 (+ (- 1) R)))
      )
      (ULTIMATE.start_L13-3
  A
  B
  C
  D
  E
  F
  G
  H
  I
  J
  K
  L
  M
  N
  O
  P
  Q
  R
  S
  T
  U
  V
  W
  X
  Y
  Z
  A1
  B1
  C1
  D1
  E1)
    )
  )
)
(assert
  (forall ( (A Int) (B (Array Int Int)) (C (Array Int Int)) (D (Array Int (Array Int Int))) (E (Array Int (Array Int Int))) (F Int) (G Int) (H (Array Int Int)) (I (Array Int Int)) (J Int) (K Int) (L Int) (M Int) (N Int) (O Int) (P Int) (Q Int) (R Int) (S Int) (T Int) (U Int) (V Int) (W Int) (X Int) (Y Int) (Z Int) (A1 Int) (B1 Int) (C1 Int) (D1 Int) (E1 Bool) ) 
    (=>
      (and
        (ULTIMATE.start_L17-3
  A
  B
  C
  D
  E
  F
  G
  H
  I
  J
  K
  L
  M
  N
  O
  P
  Q
  R
  S
  T
  U
  V
  W
  X
  Y
  Z
  A1
  B1
  C1
  D1
  E1)
        (= E1 true)
      )
      (ULTIMATE.start_L17-4
  A
  B
  C
  D
  E
  F
  G
  H
  I
  J
  K
  L
  M
  N
  O
  P
  Q
  R
  S
  T
  U
  V
  W
  X
  Y
  Z
  A1
  B1
  C1
  D1
  E1)
    )
  )
)
(assert
  (forall ( (A Int) (B (Array Int Int)) (C (Array Int Int)) (D (Array Int (Array Int Int))) (E (Array Int (Array Int Int))) (F Int) (G Int) (H (Array Int Int)) (I (Array Int Int)) (J Int) (K Int) (L Int) (M Int) (N Int) (O Int) (P Int) (Q Int) (R Int) (S Int) (T Int) (U Int) (V Int) (W Int) (X Int) (Y Int) (Z Int) (A1 Int) (B1 Int) (C1 Int) (D1 Int) (E1 Bool) ) 
    (=>
      (and
        (ULTIMATE.start_L17-3
  A
  B
  C
  D
  E
  F
  G
  H
  I
  J
  K
  L
  M
  N
  O
  P
  Q
  R
  S
  T
  U
  V
  W
  X
  Y
  Z
  A1
  B1
  C1
  D1
  E1)
        (or E1 (<= 100000 V))
      )
      (ULTIMATE.start_L17-4
  A
  B
  C
  D
  E
  F
  G
  H
  I
  J
  K
  L
  M
  N
  O
  P
  Q
  R
  S
  T
  U
  V
  W
  X
  Y
  Z
  A1
  B1
  C1
  D1
  E1)
    )
  )
)
(assert
  (forall ( (A Int) (B (Array Int Int)) (C (Array Int Int)) (D (Array Int (Array Int Int))) (E (Array Int (Array Int Int))) (F Int) (G Int) (H (Array Int Int)) (I (Array Int Int)) (J Int) (K Int) (L Int) (M Int) (N Int) (O Int) (P Int) (Q Int) (R Int) (S Int) (T Int) (U Int) (V Int) (W Int) (X Int) (Y Int) (Z Int) (A1 Int) (B1 Int) (C1 Int) (D1 Int) (E1 Bool) (F1 Int) (G1 Int) (H1 Int) (I1 Int) ) 
    (=>
      (and
        (ULTIMATE.start_L17-3
  A
  B
  C
  D
  E
  F
  G
  H
  I
  J
  K
  L
  M
  N
  F1
  P
  Q
  R
  S
  T
  U
  V
  W
  X
  G1
  Z
  A1
  H1
  I1
  D1
  E1)
        (let ((a!1 (= C1 (select (select D U) (+ (* 4 V) X))))
      (a!2 (= Y (select (select D Z) (+ (* 4 V) M)))))
(let ((a!3 (and (not (<= 100000 V)) a!1 (= B1 (ite (= Y C1) 1 0)) a!2 (= O B1))))
  (or E1 a!3)))
      )
      (ULTIMATE.start_L2
  A
  B
  C
  D
  E
  F
  G
  H
  I
  J
  K
  L
  M
  N
  O
  P
  Q
  R
  S
  T
  U
  V
  W
  X
  Y
  Z
  A1
  B1
  C1
  D1
  E1)
    )
  )
)
(assert
  (forall ( (A Int) (B (Array Int Int)) (C (Array Int Int)) (D (Array Int (Array Int Int))) (E (Array Int (Array Int Int))) (F Int) (G Int) (H (Array Int Int)) (I (Array Int Int)) (J Int) (K Int) (L Int) (M Int) (N Int) (O Int) (P Int) (Q Int) (R Int) (S Int) (T Int) (U Int) (V Int) (W Int) (X Int) (Y Int) (Z Int) (A1 Int) (B1 Int) (C1 Int) (D1 Int) (E1 Bool) (F1 (Array Int Int)) (G1 Int) (H1 Int) (I1 Int) (J1 Int) (K1 Int) ) 
    (=>
      (and
        (ULTIMATE.start_L17-4
  A
  F1
  C
  D
  E
  F
  G
  H
  I
  J
  K
  L
  G1
  N
  O
  P
  Q
  R
  S
  T
  H1
  V
  W
  I1
  Y
  J1
  K1
  B1
  C1
  D1
  E1)
        (let ((a!1 (and (= A1 0) (= (store (store F1 H1 0) J1 0) B))))
  (or E1 a!1))
      )
      (ULTIMATE.start_L20
  A
  B
  C
  D
  E
  F
  G
  H
  I
  J
  K
  L
  M
  N
  O
  P
  Q
  R
  S
  T
  U
  V
  W
  X
  Y
  Z
  A1
  B1
  C1
  D1
  E1)
    )
  )
)
(assert
  (forall ( (A Int) (B (Array Int Int)) (C (Array Int Int)) (D (Array Int (Array Int Int))) (E (Array Int (Array Int Int))) (F Int) (G Int) (H (Array Int Int)) (I (Array Int Int)) (J Int) (K Int) (L Int) (M Int) (N Int) (O Int) (P Int) (Q Int) (R Int) (S Int) (T Int) (U Int) (V Int) (W Int) (X Int) (Y Int) (Z Int) (A1 Int) (B1 Int) (C1 Int) (D1 Int) (E1 Bool) ) 
    (=>
      (and
        (ULTIMATE.start_L2
  A
  B
  C
  D
  E
  F
  G
  H
  I
  J
  K
  L
  M
  N
  O
  P
  Q
  R
  S
  T
  U
  V
  W
  X
  Y
  Z
  A1
  B1
  C1
  D1
  E1)
        (or E1 (= 0 O))
      )
      (ULTIMATE.start_L2-1
  A
  B
  C
  D
  E
  F
  G
  H
  I
  J
  K
  L
  M
  N
  O
  P
  Q
  R
  S
  T
  U
  V
  W
  X
  Y
  Z
  A1
  B1
  C1
  D1
  E1)
    )
  )
)
(assert
  (forall ( (A Int) (B (Array Int Int)) (C (Array Int Int)) (D (Array Int (Array Int Int))) (E (Array Int (Array Int Int))) (F Int) (G Int) (H (Array Int Int)) (I (Array Int Int)) (J Int) (K Int) (L Int) (M Int) (N Int) (O Int) (P Int) (Q Int) (R Int) (S Int) (T Int) (U Int) (V Int) (W Int) (X Int) (Y Int) (Z Int) (A1 Int) (B1 Int) (C1 Int) (D1 Int) (E1 Bool) ) 
    (=>
      (and
        (ULTIMATE.start_L2
  A
  B
  C
  D
  E
  F
  G
  H
  I
  J
  K
  L
  M
  N
  O
  P
  Q
  R
  S
  T
  U
  V
  W
  X
  Y
  Z
  A1
  B1
  C1
  D1
  E1)
        (or E1 (not (= 0 O)))
      )
      (ULTIMATE.start_L2-3
  A
  B
  C
  D
  E
  F
  G
  H
  I
  J
  K
  L
  M
  N
  O
  P
  Q
  R
  S
  T
  U
  V
  W
  X
  Y
  Z
  A1
  B1
  C1
  D1
  E1)
    )
  )
)
(assert
  (forall ( (A Int) (B (Array Int Int)) (C (Array Int Int)) (D (Array Int (Array Int Int))) (E (Array Int (Array Int Int))) (F Int) (G Int) (H (Array Int Int)) (I (Array Int Int)) (J Int) (K Int) (L Int) (M Int) (N Int) (O Int) (P Int) (Q Int) (R Int) (S Int) (T Int) (U Int) (V Int) (W Int) (X Int) (Y Int) (Z Int) (A1 Int) (B1 Int) (C1 Int) (D1 Int) (E1 Bool) (F1 Int) ) 
    (=>
      (and
        (ULTIMATE.start_L20
  A
  B
  C
  D
  E
  F
  G
  H
  I
  J
  K
  L
  M
  N
  O
  P
  Q
  R
  S
  F1
  U
  V
  W
  X
  Y
  Z
  A1
  B1
  C1
  D1
  E1)
        (or E1 (= T A1))
      )
      (ULTIMATE.start_ULTIMATE.startFINAL
  A
  B
  C
  D
  E
  F
  G
  H
  I
  J
  K
  L
  M
  N
  O
  P
  Q
  R
  S
  T
  U
  V
  W
  X
  Y
  Z
  A1
  B1
  C1
  D1
  E1)
    )
  )
)
(assert
  (forall ( (A Int) (B (Array Int Int)) (C (Array Int Int)) (D (Array Int (Array Int Int))) (E (Array Int (Array Int Int))) (F Int) (G Int) (H (Array Int Int)) (I (Array Int Int)) (J Int) (K Int) (L Int) (M Int) (N Int) (O Int) (P Int) (Q Int) (R Int) (S Int) (T Int) (U Int) (V Int) (W Int) (X Int) (Y Int) (Z Int) (A1 Int) (B1 Int) (C1 Int) (D1 Int) (E1 Bool) (F1 Bool) ) 
    (=>
      (and
        (ULTIMATE.start_L2-1
  A
  B
  C
  D
  E
  F
  G
  H
  I
  J
  K
  L
  M
  N
  O
  P
  Q
  R
  S
  T
  U
  V
  W
  X
  Y
  Z
  A1
  B1
  C1
  D1
  F1)
        (= E1 true)
      )
      (ULTIMATE.start_ULTIMATE.startEXIT
  A
  B
  C
  D
  E
  F
  G
  H
  I
  J
  K
  L
  M
  N
  O
  P
  Q
  R
  S
  T
  U
  V
  W
  X
  Y
  Z
  A1
  B1
  C1
  D1
  E1)
    )
  )
)
(assert
  (forall ( (A Int) (B (Array Int Int)) (C (Array Int Int)) (D (Array Int (Array Int Int))) (E (Array Int (Array Int Int))) (F Int) (G Int) (H (Array Int Int)) (I (Array Int Int)) (J Int) (K Int) (L Int) (M Int) (N Int) (O Int) (P Int) (Q Int) (R Int) (S Int) (T Int) (U Int) (V Int) (W Int) (X Int) (Y Int) (Z Int) (A1 Int) (B1 Int) (C1 Int) (D1 Int) (E1 Bool) ) 
    (=>
      (and
        (ULTIMATE.start_L2-1
  A
  B
  C
  D
  E
  F
  G
  H
  I
  J
  K
  L
  M
  N
  O
  P
  Q
  R
  S
  T
  U
  V
  W
  X
  Y
  Z
  A1
  B1
  C1
  D1
  E1)
        (= E1 true)
      )
      (ULTIMATE.start_L2-3
  A
  B
  C
  D
  E
  F
  G
  H
  I
  J
  K
  L
  M
  N
  O
  P
  Q
  R
  S
  T
  U
  V
  W
  X
  Y
  Z
  A1
  B1
  C1
  D1
  E1)
    )
  )
)
(assert
  (forall ( (A Int) (B (Array Int Int)) (C (Array Int Int)) (D (Array Int (Array Int Int))) (E (Array Int (Array Int Int))) (F Int) (G Int) (H (Array Int Int)) (I (Array Int Int)) (J Int) (K Int) (L Int) (M Int) (N Int) (O Int) (P Int) (Q Int) (R Int) (S Int) (T Int) (U Int) (V Int) (W Int) (X Int) (Y Int) (Z Int) (A1 Int) (B1 Int) (C1 Int) (D1 Int) (E1 Bool) (F1 Int) (G1 Int) ) 
    (=>
      (and
        (ULTIMATE.start_L2-3
  A
  B
  C
  D
  E
  F
  G
  H
  I
  J
  K
  L
  M
  N
  O
  P
  Q
  R
  S
  T
  U
  V
  W
  X
  F1
  Z
  A1
  B1
  G1
  D1
  E1)
        true
      )
      (ULTIMATE.start_L17-2
  A
  B
  C
  D
  E
  F
  G
  H
  I
  J
  K
  L
  M
  N
  O
  P
  Q
  R
  S
  T
  U
  V
  W
  X
  Y
  Z
  A1
  B1
  C1
  D1
  E1)
    )
  )
)
(assert
  (forall ( (A Int) (B (Array Int Int)) (C (Array Int Int)) (D (Array Int (Array Int Int))) (E (Array Int (Array Int Int))) (F Int) (G Int) (H (Array Int Int)) (I (Array Int Int)) (J Int) (K Int) (L Int) (M Int) (N Int) (O Int) (P Int) (Q Int) (R Int) (S Int) (T Int) (U Int) (V Int) (W Int) (X Int) (Y Int) (Z Int) (A1 Int) (B1 Int) (C1 Int) (D1 Int) (E1 Bool) ) 
    (=>
      (and
        (ULTIMATE.start_ULTIMATE.startFINAL
  A
  B
  C
  D
  E
  F
  G
  H
  I
  J
  K
  L
  M
  N
  O
  P
  Q
  R
  S
  T
  U
  V
  W
  X
  Y
  Z
  A1
  B1
  C1
  D1
  E1)
        true
      )
      (ULTIMATE.start_ULTIMATE.startEXIT
  A
  B
  C
  D
  E
  F
  G
  H
  I
  J
  K
  L
  M
  N
  O
  P
  Q
  R
  S
  T
  U
  V
  W
  X
  Y
  Z
  A1
  B1
  C1
  D1
  E1)
    )
  )
)
(assert
  (forall ( (A Int) (B (Array Int Int)) (C (Array Int Int)) (D (Array Int (Array Int Int))) (E (Array Int (Array Int Int))) (F Int) (G Int) (H (Array Int Int)) (I (Array Int Int)) (J Int) (K Int) (L Int) (M Int) (N Int) (O Int) (P Int) (Q Int) (R Int) (S Int) (T Int) (U Int) (V Int) (W Int) (X Int) (Y Int) (Z Int) (A1 Int) (B1 Int) (C1 Int) (D1 Int) (E1 Bool) (F1 Int) (G1 Int) ) 
    (=>
      (and
        (ULTIMATE.start_L17-2
  A
  B
  C
  D
  E
  F
  G
  H
  I
  J
  K
  L
  M
  N
  O
  P
  Q
  R
  S
  T
  U
  F1
  G1
  X
  Y
  Z
  A1
  B1
  C1
  D1
  E1)
        (or E1 (= F1 (+ (- 1) V)))
      )
      (ULTIMATE.start_L17-3
  A
  B
  C
  D
  E
  F
  G
  H
  I
  J
  K
  L
  M
  N
  O
  P
  Q
  R
  S
  T
  U
  V
  W
  X
  Y
  Z
  A1
  B1
  C1
  D1
  E1)
    )
  )
)
(assert
  (forall ( (A Int) (B (Array Int Int)) (C (Array Int Int)) (D (Array Int (Array Int Int))) (E (Array Int (Array Int Int))) (F Int) (G Int) (H (Array Int Int)) (I (Array Int Int)) (J Int) (K Int) (L Int) (M Int) (N Int) (O Int) (P Int) (Q Int) (R Int) (S Int) (T Int) (U Int) (V Int) (W Int) (X Int) (Y Int) (Z Int) (A1 Int) (B1 Int) (C1 Int) (D1 Int) (E1 Bool) ) 
    (=>
      (and
        (and (= I H) (= B C) (= K J) (= F G) (not E1) (= D E))
      )
      (ULTIMATE.start_ULTIMATE.startENTRY
  A
  B
  C
  D
  E
  F
  G
  H
  I
  J
  K
  L
  M
  N
  O
  P
  Q
  R
  S
  T
  U
  V
  W
  X
  Y
  Z
  A1
  B1
  C1
  D1
  E1)
    )
  )
)
(assert
  (forall ( (A Int) (B (Array Int Int)) (C (Array Int Int)) (D (Array Int (Array Int Int))) (E (Array Int (Array Int Int))) (F Int) (G Int) (H (Array Int Int)) (I (Array Int Int)) (J Int) (K Int) (L Int) (M Int) (N Int) (O Int) (P Int) (Q Int) (R Int) (S Int) (T Int) (U Int) (V Int) (W Int) (X Int) (Y Int) (Z Int) (A1 Int) (B1 Int) (C1 Int) (D1 Int) (E1 Bool) ) 
    (=>
      (and
        (ULTIMATE.start_ULTIMATE.startEXIT
  A
  B
  C
  D
  E
  F
  G
  H
  I
  J
  K
  L
  M
  N
  O
  P
  Q
  R
  S
  T
  U
  V
  W
  X
  Y
  Z
  A1
  B1
  C1
  D1
  E1)
        (= E1 true)
      )
      false
    )
  )
)

(check-sat)
(exit)
